SPARKNaCl/why3-z3/sparknacl.adb_85_22_range_check_1.smt2
;; produced by z3_gnatprove.drv ;;
(set-info :smt-lib-version 2.5)
(set-info :source |VC generated by SPARK 2014|)
(set-info :category industrial)
(set-info :status unknown)
;;; generated by SMT-LIB2 driver
;;; SMT-LIB2 driver: bit-vectors, common part
;;; SMT-LIB2: integer arithmetic
(define-fun __cdiv ((x Int) (y Int)) Int (ite (>= x 0) (div x y) (- (div (- x) y))))
(define-fun __cmod ((x Int) (y Int)) Int (ite (>= x 0) (mod x y) (- (mod (- x) y))))
(declare-datatypes ()
  ((int__ref (int__refqtmk (int__content Int)))))

;; "mod"
(define-fun mod1 ((x Int) (y Int)) Int
  (ite (<= 0 y) (mod x y) (- (mod (- x) y))))

;; "power"
(declare-fun power (Int
  Int) Int)

;; "Power_0"
(assert (forall ((x Int)) (= (power x 0) 1)))

;; "Power_s"
(assert
  (forall ((x Int) (n Int))
    (=> (<= 0 n) (= (power x (+ n 1)) (* x (power x n))))))

;; "Power_s_alt"
(assert
  (forall ((x Int) (n Int))
    (=> (< 0 n) (= (power x n) (* x (power x (- n 1)))))))

;; "Power_1"
(assert (forall ((x Int)) (= (power x 1) x)))

;; "Power_sum"
(assert
  (forall ((x Int) (n Int) (m Int))
    (=>
      (<= 0 n)
      (=> (<= 0 m) (= (power x (+ n m)) (* (power x n) (power x m)))))))

;; "Power_mult"
(assert
  (forall ((x Int) (n Int) (m Int))
    (=> (<= 0 n) (=> (<= 0 m) (= (power x (* n m)) (power (power x n) m))))))

;; "Power_comm1"
(assert
  (forall ((x Int) (y Int))
    (=>
      (= (* x y) (* y x))
      (forall ((n Int))
        (=> (<= 0 n) (= (* (power x n) y) (* y (power x n))))))))

;; "Power_comm2"
(assert
  (forall ((x Int) (y Int))
    (=>
      (= (* x y) (* y x))
      (forall ((n Int))
        (=> (<= 0 n) (= (power (* x y) n) (* (power x n) (power y n))))))))

;; "Power_non_neg"
(assert
  (forall ((x Int) (y Int)) (=> (and (<= 0 x) (<= 0 y)) (<= 0 (power x y)))))

;; "Power_pos"
(assert
  (forall ((x Int) (y Int)) (=> (and (< 0 x) (<= 0 y)) (< 0 (power x y)))))

;; "Power_monotonic"
(assert
  (forall ((x Int) (n Int) (m Int))
    (=> (and (< 0 x) (and (<= 0 n) (<= n m))) (<= (power x n) (power x m)))))

;; "shift_right_arithmetic"
(define-fun shift_right_arithmetic ((x Int) (n Int) (us Int)) Int
  (ite (< x 0) (- (__cdiv (+ x 1) (power 2 n)) 1) (__cdiv x (power 2 n))))

;; "in_range"
(define-fun in_range ((x Int)) Bool
  (and (<= (- 2147483648) x) (<= x 2147483647)))

;; "asr32_16"
(declare-fun asr32_16 (Int) Int)

;; "asr32_16__function_guard"
(declare-fun asr32_16__function_guard (Int
  Int) Bool)

(declare-sort gf16_normal_limb 0)

;; "to_rep"
(declare-fun to_rep (gf16_normal_limb) (_ BitVec 16))

;; "of_rep"
(declare-fun of_rep ((_ BitVec 16)) gf16_normal_limb)

;; "inversion_axiom"
(assert
  (forall ((x gf16_normal_limb))
    (! (= (of_rep (to_rep x)) x) :pattern ((to_rep x)) )))

;; "range_axiom"
(assert true)

;; "coerce_axiom"
(assert
  (forall ((x (_ BitVec 16)))
    (! (= (to_rep (of_rep x)) x) :pattern ((to_rep (of_rep x))) )))

(declare-sort map1 0)

;; "has_bounds"
(declare-fun has_bounds (map1
  Int
  Int) Bool)

;; "get"
(declare-fun get (map1
  Int) gf16_normal_limb)

(declare-const left map1)

(declare-const right map1)

(declare-sort gf32_any_limb 0)

;; "gf32_any_limb'int"
(declare-fun gf32_any_limbqtint (gf32_any_limb) Int)

;; "gf32_any_limb'axiom"
(assert
  (forall ((i gf32_any_limb))
    (and
      (<= (- 65536) (gf32_any_limbqtint i))
      (<= (gf32_any_limbqtint i) 132051011))))

;; "in_range"
(define-fun in_range1 ((x Int)) Bool
  (and (<= (- 65536) x) (<= x 132051011)))

;; "to_rep"
(define-fun to_rep1 ((x gf32_any_limb)) Int
  (gf32_any_limbqtint x))

;; "of_rep"
(declare-fun of_rep1 (Int) gf32_any_limb)

;; "inversion_axiom"
(assert
  (forall ((x gf32_any_limb))
    (! (= (of_rep1 (to_rep1 x)) x) :pattern ((to_rep1 x)) )))

;; "range_axiom"
(assert
  (forall ((x gf32_any_limb))
    (! (in_range1 (to_rep1 x)) :pattern ((to_rep1 x)) )))

;; "coerce_axiom"
(assert
  (forall ((x Int))
    (! (=> (in_range1 x) (= (to_rep1 (of_rep1 x)) x)) :pattern ((to_rep1
                                                                  (of_rep1 x))) )))

(declare-sort map2 0)

;; "get"
(declare-fun get1 (map2
  Int) gf32_any_limb)

(declare-datatypes ()
  ((gf32_any_limb__init_wrapper
   (gf32_any_limb__init_wrapperqtmk
   (rec__value gf32_any_limb)(us_attr__init Bool)))))

(declare-sort map3 0)

(declare-datatypes ()
  ((map__ref (map__refqtmk (map__content map3)))))

;; "has_bounds"
(declare-fun has_bounds1 (map3
  Int
  Int) Bool)

;; "get"
(declare-fun get2 (map3
  Int) gf32_any_limb__init_wrapper)

;; "set"
(declare-fun set (map3
  Int
  gf32_any_limb__init_wrapper) map3)

;; "set_eq"
(assert
  (forall ((a map3) (i Int) (v gf32_any_limb__init_wrapper))
    (! (= (get2 (set a i v) i) v) :pattern ((set a i v)) )))

;; "set_neq"
(assert
  (forall ((a map3) (i Int) (v gf32_any_limb__init_wrapper))
    (! (forall ((j Int))
         (! (=> (not (= i j)) (= (get2 (set a i v) j) (get2 a j))) :pattern (
         (get2
           a
           j)) :pattern ((get2 (set a i v) j)) )) :pattern ((set a i v)) )))

;; "set_has_bounds"
(assert
  (forall ((a map3) (i Int) (f Int) (l Int) (v gf32_any_limb__init_wrapper))
    (! (=>
         (and (<= f i) (<= i l))
         (=> (has_bounds1 a f l) (has_bounds1 (set a i v) f l))) :pattern (
    (has_bounds1
      (set a i v)
      f
      l)) )))

;; "convert"
(declare-fun convert (map3) map2)

;; "convert__def"
(assert
  (forall ((a map3))
    (forall ((temp___209 Int))
      (= (to_rep1 (of_rep1 (to_rep1 (rec__value (get2 a temp___209))))) 
      (to_rep1
        (get1 (convert a) temp___209))))))

;; "__is_initialized"
(define-fun us_is_initialized ((temp___expr_776 map3)) Bool
  (forall ((temp___777 Int))
    (=>
      (and (<= 0 temp___777) (<= temp___777 15))
      (= (us_attr__init (get2 temp___expr_776 temp___777)) true))))

;; "in_range"
(define-fun in_range2 ((x Int)) Bool
  (and (<= 0 x) (<= x 65535)))

;; "in_range"
(define-fun in_range3 ((x Int)) Bool
  (and (<= (- 65536) x) (<= x 65535)))

;; "in_range"
(define-fun in_range4 ((x Int)) Bool
  (and (<= (- 1) x) (<= x 0)))

(declare-const t Int)

(declare-const carry Int)

(declare-const r map3)

;; "r'unused"
(define-fun rqtunused () map__ref
  (map__refqtmk r))

;; "carry'unused"
(define-fun carryqtunused () int__ref
  (int__refqtmk carry))

;; "t'unused"
(define-fun tqtunused () int__ref
  (int__refqtmk t))

;; "Assume"
(assert (has_bounds left 0 15))

;; "Assume"
(assert (has_bounds right 0 15))

;; "Assume"
(assert true)

;; "Assume"
(assert (in_range3 t))

;; "Assume"
(assert true)

;; "Assume"
(assert (in_range4 carry))

;; "Assume"
(assert (has_bounds1 r 0 15))

(declare-const carry1 Int)

;; "carry'unused"
(define-fun carryqtunused1 () int__ref
  (int__refqtmk carry1))

;; "H"
(assert (= carry1 0))

(declare-const carry2 Int)

(declare-const r1 map3)

;; "r'unused"
(define-fun rqtunused1 () map__ref
  (map__refqtmk r1))

;; "carry'unused"
(define-fun carryqtunused2 () int__ref
  (int__refqtmk carry2))

(declare-const i Int)

(declare-const iqtunused int__ref)

;; "H"
(assert (= iqtunused (int__refqtmk i)))

;; "H"
(assert (= i 0))

(declare-const int__contentqtresultqtunused Int)

;; "H"
(assert (= int__contentqtresultqtunused i))

(declare-const o Bool)

;; "H"
(assert (= o (ite (<= i 15) true false)))

(declare-const infix_lseqqtresultqtunused Bool)

;; "H"
(assert (= infix_lseqqtresultqtunused o))

(declare-const int__contentqtresultqtunused1 Int)

;; "H"
(assert (= int__contentqtresultqtunused1 i))

(declare-const o1 Bool)

;; "H"
(assert (= o1 (ite (<= 0 i) true false)))

(declare-const infix_lseqqtresultqtunused1 Bool)

;; "H"
(assert (= infix_lseqqtresultqtunused1 o1))

(declare-const o2 Bool)

;; "H"
(assert (= o2 (and o1 o)))

(declare-const andbqtresultqtunused Bool)

;; "H"
(assert (= andbqtresultqtunused o2))

(declare-const temp___loop_entry_1605qtunused map3)

(declare-const map__contentqtresultqtunused map3)

(declare-const temp___loop_entry_1603qtunused Int)

(declare-const int__contentqtresultqtunused2 Int)

(declare-const temp___loop_entry_1602qtunused Int)

(declare-const int__contentqtresultqtunused3 Int)

(declare-const int__contentqtresultqtunused4 Int)

(declare-const int__contentqtresultqtunused5 Int)

(declare-const o3 gf16_normal_limb)

(declare-const getqtresultqtunused gf16_normal_limb)

(declare-const o4 (_ BitVec 16))

(declare-const to_repqtresultqtunused (_ BitVec 16))

(declare-const o5 Int)

(declare-const t_intqtresultqtunused Int)

(declare-const int__contentqtresultqtunused6 Int)

(declare-const o6 gf16_normal_limb)

(declare-const getqtresultqtunused1 gf16_normal_limb)

(declare-const o7 (_ BitVec 16))

(declare-const to_repqtresultqtunused1 (_ BitVec 16))

(declare-const o8 Int)

(declare-const t_intqtresultqtunused1 Int)

(declare-const o9 Int)

(declare-const infix_mnqtresultqtunused Int)

(declare-const o10 Int)

(declare-const infix_plqtresultqtunused Int)

(declare-const t1 Int)

(declare-const tqtunused1 int__ref)

(declare-const int__contentqtresultqtunused7 Int)

(declare-const o11 Int)

(declare-const mod_qtresultqtunused Int)

(declare-const o12 gf32_any_limb)

(declare-const of_repqtresultqtunused gf32_any_limb)

(declare-const o13 gf32_any_limb__init_wrapper)

(declare-const to_wrapperqtresultqtunused gf32_any_limb__init_wrapper)

(declare-const int__contentqtresultqtunused8 Int)

(declare-const map__contentqtresultqtunused1 map3)

(declare-const o14 map3)

(declare-const setqtresultqtunused map3)

(declare-const r2 map3)

(declare-const rqtunused2 map__ref)

(declare-const int__contentqtresultqtunused9 Int)

(declare-const o15 Int)

(declare-const asr32_16qtresultqtunused Int)

(declare-const range_check_qtresultqtunused Int)

(declare-const carry3 Int)

(declare-const usfqtunused Bool)

(declare-const anyqtresultqtunused Bool)

(declare-const t2 Int)

(declare-const i1 Int)

(declare-const iqtunused1 int__ref)

(declare-const int__contentqtresultqtunused10 Int)

(declare-const infix_eqqtresultqtunused Bool)

(declare-const usf Int)

(declare-const anyqtresultqtunused1 Int)

(declare-const jqtunused Int)

(declare-const int__contentqtresultqtunused11 Int)

(declare-const o16 Bool)

(declare-const infix_lseqqtresultqtunused2 Bool)

(declare-const o17 Bool)

(declare-const infix_lseqqtresultqtunused3 Bool)

(declare-const andbqtresultqtunused1 Bool)

;; "H"
(assert
  (ite (= o2 true)
    (and
      (= temp___loop_entry_1605qtunused r)
      (and
        (= map__contentqtresultqtunused r)
        (and
          (= temp___loop_entry_1603qtunused carry1)
          (and
            (= int__contentqtresultqtunused2 carry1)
            (and
              (= temp___loop_entry_1602qtunused t)
              (and
                (= int__contentqtresultqtunused3 t)
                (and
                  (= int__contentqtresultqtunused4 carry1)
                  (and
                    (= int__contentqtresultqtunused5 i)
                    (and
                      (= o3 (get right i))
                      (and
                        (= getqtresultqtunused o3)
                        (and
                          (= (to_rep o3) o4)
                          (and
                            (= to_repqtresultqtunused o4)
                            (and
                              (= o5 (bv2int o4))
                              (and
                                (= t_intqtresultqtunused o5)
                                (and
                                  (= int__contentqtresultqtunused6 i)
                                  (and
                                    (= o6 (get left i))
                                    (and
                                      (= getqtresultqtunused1 o6)
                                      (and
                                        (= (to_rep o6) o7)
                                        (and
                                          (= to_repqtresultqtunused1 
                                          o7)
                                          (and
                                            (= o8 (bv2int o7))
                                            (and
                                              (= t_intqtresultqtunused1 
                                              o8)
                                              (and
                                                (= o9 (- o8 o5))
                                                (and
                                                  (= infix_mnqtresultqtunused 
                                                  o9)
                                                  (and
                                                    (= o10 (+ o9 carry1))
                                                    (and
                                                      (= infix_plqtresultqtunused 
                                                      o10)
                                                      (and
                                                        (= tqtunused1 
                                                        (int__refqtmk
                                                          t1))
                                                        (and
                                                          (= t1 o10)
                                                          (and
                                                            (= int__contentqtresultqtunused7 
                                                            t1)
                                                            (and
                                                              (= o11 
                                                              (mod1
                                                                t1
                                                                65536))
                                                              (and
                                                                (= mod_qtresultqtunused 
                                                                o11)
                                                                (and
                                                                  (= 
                                                                  (to_rep1
                                                                    o12) 
                                                                  o11)
                                                                  (and
                                                                    (= 
                                                                    of_repqtresultqtunused 
                                                                    o12)
                                                                    (and
                                                                    (= 
                                                                    o13 
                                                                    (gf32_any_limb__init_wrapperqtmk
                                                                    o12
                                                                    true))
                                                                    (and
                                                                    (= 
                                                                    to_wrapperqtresultqtunused 
                                                                    o13)
                                                                    (and
                                                                    (= 
                                                                    int__contentqtresultqtunused8 
                                                                    i)
                                                                    (and
                                                                    (= 
                                                                    map__contentqtresultqtunused1 
                                                                    r)
                                                                    (and
                                                                    (= 
                                                                    o14 
                                                                    (set
                                                                    r
                                                                    i
                                                                    o13))
                                                                    (and
                                                                    (= 
                                                                    setqtresultqtunused 
                                                                    o14)
                                                                    (and
                                                                    (= 
                                                                    rqtunused2 
                                                                    (map__refqtmk
                                                                    r2))
                                                                    (and
                                                                    (= 
                                                                    r2 
                                                                    o14)
                                                                    (and
                                                                    (= 
                                                                    int__contentqtresultqtunused9 
                                                                    t1)
                                                                    (and
                                                                    (= 
                                                                    o15 
                                                                    (asr32_16
                                                                    t1))
                                                                    (and
                                                                    (and
                                                                    (asr32_16__function_guard
                                                                    o15
                                                                    t1)
                                                                    (and
                                                                    (in_range
                                                                    o15)
                                                                    (and
                                                                    (= 
                                                                    o15 
                                                                    (shift_right_arithmetic
                                                                    t1
                                                                    16
                                                                    32))
                                                                    (ite (<= 0 
                                                                    t1)
                                                                    (= 
                                                                    o15 (__cdiv 
                                                                    t1 65536))
                                                                    (= 
                                                                    o15 (- (__cdiv (+ 
                                                                    t1 1) 65536) 1))))))
                                                                    (and
                                                                    (= 
                                                                    asr32_16qtresultqtunused 
                                                                    o15)
                                                                    (and
                                                                    (in_range4
                                                                    o15)
                                                                    (and
                                                                    (= 
                                                                    range_check_qtresultqtunused 
                                                                    o15)
                                                                    (and
                                                                    (= 
                                                                    carry3 
                                                                    o15)
                                                                    (and
                                                                    (and
                                                                    (= 
                                                                    anyqtresultqtunused1 
                                                                    usf)
                                                                    (and
                                                                    (= 
                                                                    jqtunused 
                                                                    usf)
                                                                    (and
                                                                    (= 
                                                                    int__contentqtresultqtunused11 
                                                                    i)
                                                                    (and
                                                                    (= 
                                                                    o16 
                                                                    (ite (<= 
                                                                    usf 
                                                                    i)
                                                                    true
                                                                    false))
                                                                    (and
                                                                    (= 
                                                                    infix_lseqqtresultqtunused2 
                                                                    o16)
                                                                    (and
                                                                    (= 
                                                                    o17 
                                                                    (ite (<= 0 
                                                                    usf)
                                                                    true
                                                                    false))
                                                                    (and
                                                                    (= 
                                                                    infix_lseqqtresultqtunused3 
                                                                    o17)
                                                                    (= 
                                                                    andbqtresultqtunused1 (and 
                                                                    o17 
                                                                    o16)))))))))
                                                                    (and
                                                                    (= 
                                                                    usfqtunused 
                                                                    (ite 
                                                                    (forall 
                                                                    ((j Int))
                                                                    (=>
                                                                    (and
                                                                    (<= 0 j)
                                                                    (<= j 
                                                                    i))
                                                                    (= 
                                                                    (us_attr__init
                                                                    (get2
                                                                    r2
                                                                    j)) true)))
                                                                    true
                                                                    false))
                                                                    (and
                                                                    (= 
                                                                    anyqtresultqtunused 
                                                                    (ite 
                                                                    (forall 
                                                                    ((j Int))
                                                                    (=>
                                                                    (and
                                                                    (<= 0 j)
                                                                    (<= j 
                                                                    i))
                                                                    (= 
                                                                    (us_attr__init
                                                                    (get2
                                                                    r2
                                                                    j)) true)))
                                                                    true
                                                                    false))
                                                                    (and
                                                                    (= 
                                                                    iqtunused1 
                                                                    (int__refqtmk
                                                                    i1))
                                                                    (and
                                                                    (and
                                                                    (forall 
                                                                    ((j Int))
                                                                    (=>
                                                                    (and
                                                                    (<= 0 j)
                                                                    (<= j 
                                                                    i1))
                                                                    (= 
                                                                    (us_attr__init
                                                                    (get2
                                                                    r1
                                                                    j)) true)))
                                                                    (forall 
                                                                    ((j Int))
                                                                    (=>
                                                                    (and
                                                                    (<= 0 j)
                                                                    (<= j 
                                                                    i1))
                                                                    (in_range2
                                                                    (to_rep1
                                                                    (rec__value
                                                                    (get2
                                                                    r1
                                                                    j)))))))
                                                                    (and
                                                                    (= (and 
                                                                    (ite 
                                                                    (and
                                                                    (and
                                                                    (and
                                                                    (in_range3
                                                                    t2)
                                                                    (in_range4
                                                                    carry2))
                                                                    (has_bounds1
                                                                    r1
                                                                    0
                                                                    15))
                                                                    (forall 
                                                                    ((temp___1606 Int))
                                                                    (=>
                                                                    (and
                                                                    (<= 0 temp___1606)
                                                                    (<= temp___1606 15))
                                                                    (=>
                                                                    (or
                                                                    (< 15 temp___1606)
                                                                    (or
                                                                    (< temp___1606 0)
                                                                    (< 
                                                                    i1 temp___1606)))
                                                                    (= 
                                                                    (get2
                                                                    r1
                                                                    temp___1606) 
                                                                    (get2
                                                                    r
                                                                    temp___1606))))))
                                                                    true
                                                                    false) 
                                                                    (ite 
                                                                    (and
                                                                    (<= 0 
                                                                    i1)
                                                                    (<= 
                                                                    i1 15))
                                                                    true
                                                                    false)) true)
                                                                    (and
                                                                    (= 
                                                                    int__contentqtresultqtunused10 
                                                                    i1)
                                                                    (and
                                                                    (= 
                                                                    infix_eqqtresultqtunused 
                                                                    (ite (= 
                                                                    i1 15)
                                                                    true
                                                                    false))
                                                                    (= 
                                                                    i1 15))))))))))))))))))))))))))))))))))))))))))))))))))))))))
    (and (= carry2 carry1) (= r1 r))))

;; "Assert"
(assert
  (and
    (us_is_initialized r1)
    (forall ((i2 Int))
      (=>
        (and (<= 0 i2) (<= i2 15))
        (in_range2 (to_rep1 (get1 (convert r1) i2)))))))

;; "int__content'result'unused"
(define-fun int__contentqtresultqtunused12 () Int
  carry2)

;; "o"
(define-fun o18 () Int
  (* 38 carry2))

;; "infix *'result'unused"
(define-fun infix_asqtresultqtunused () Int
  o18)

;; "map__content'result'unused"
(define-fun map__contentqtresultqtunused2 () map3
  r1)

;; "temp___1640"
(define-fun temp___1640 () gf32_any_limb__init_wrapper
  (get2 r1 0))

;; "get'result'unused"
(define-fun getqtresultqtunused2 () gf32_any_limb__init_wrapper
  temp___1640)

;; "Assert"
(assert (= (us_attr__init temp___1640) true))

;; "o"
(define-fun o19 () gf32_any_limb
  (rec__value temp___1640))

;; "of_wrapper'result'unused"
(define-fun of_wrapperqtresultqtunused () gf32_any_limb
  o19)

(declare-const o20 Int)

;; "Ensures"
(assert (= (to_rep1 o19) o20))

;; "to_rep'result'unused"
(define-fun to_repqtresultqtunused2 () Int
  o20)

;; "o"
(define-fun o21 () Int
  (+ o20 o18))

;; "infix +'result'unused"
(define-fun infix_plqtresultqtunused1 () Int
  o21)

;; Goal "def'vc"
;; File "sparknacl.ads", line 454, characters 0-0
(assert
  (not (<= (- 65536) o21)))

(check-sat)
